p cnf 87 297
-7 1 0
-7 2 0
7 -1 -2 0
-8 1 0
-8 3 0
8 -1 -3 0
-9 1 0
-9 4 0
9 -1 -4 0
-10 1 0
-10 5 0
10 -1 -5 0
-11 1 0
-11 6 0
11 -1 -6 0
-12 2 0
-12 3 0
12 -2 -3 0
-13 2 0
-13 4 0
13 -2 -4 0
-14 2 0
-14 5 0
14 -2 -5 0
-15 2 0
-15 6 0
15 -2 -6 0
-16 3 0
-16 4 0
16 -3 -4 0
-17 3 0
-17 5 0
17 -3 -5 0
-18 3 0
-18 6 0
18 -3 -6 0
-19 4 0
-19 5 0
19 -4 -5 0
-20 4 0
-20 6 0
20 -4 -6 0
-21 5 0
-21 6 0
21 -5 -6 0
22 0
1 -22 23 0
-1 -22 -23 0
1 -23 22 0
-1 22 23 0
6 -23 24 0
-6 -23 -24 0
6 -24 23 0
-6 23 24 0
13 -24 25 0
-13 -24 -25 0
13 -25 24 0
-13 24 25 0
15 -25 26 0
-15 -25 -26 0
15 -26 25 0
-15 25 26 0
16 -26 27 0
-16 -26 -27 0
16 -27 26 0
-16 26 27 0
17 -27 28 0
-17 -27 -28 0
17 -28 27 0
-17 27 28 0
18 -28 29 0
-18 -28 -29 0
18 -29 28 0
-18 28 29 0
20 -29 30 0
-20 -29 -30 0
20 -30 29 0
-20 29 30 0
-30 0
-31 0
4 -31 32 0
-4 -31 -32 0
4 -32 31 0
-4 31 32 0
7 -32 33 0
-7 -32 -33 0
7 -33 32 0
-7 32 33 0
9 -33 34 0
-9 -33 -34 0
9 -34 33 0
-9 33 34 0
11 -34 35 0
-11 -34 -35 0
11 -35 34 0
-11 34 35 0
12 -35 36 0
-12 -35 -36 0
12 -36 35 0
-12 35 36 0
18 -36 37 0
-18 -36 -37 0
18 -37 36 0
-18 36 37 0
-37 0
-38 0
1 -38 39 0
-1 -38 -39 0
1 -39 38 0
-1 38 39 0
5 -39 40 0
-5 -39 -40 0
5 -40 39 0
-5 39 40 0
6 -40 41 0
-6 -40 -41 0
6 -41 40 0
-6 40 41 0
7 -41 42 0
-7 -41 -42 0
7 -42 41 0
-7 41 42 0
9 -42 43 0
-9 -42 -43 0
9 -43 42 0
-9 42 43 0
10 -43 44 0
-10 -43 -44 0
10 -44 43 0
-10 43 44 0
11 -44 45 0
-11 -44 -45 0
11 -45 44 0
-11 44 45 0
13 -45 46 0
-13 -45 -46 0
13 -46 45 0
-13 45 46 0
16 -46 47 0
-16 -46 -47 0
16 -47 46 0
-16 46 47 0
17 -47 48 0
-17 -47 -48 0
17 -48 47 0
-17 47 48 0
18 -48 49 0
-18 -48 -49 0
18 -49 48 0
-18 48 49 0
19 -49 50 0
-19 -49 -50 0
19 -50 49 0
-19 49 50 0
21 -50 51 0
-21 -50 -51 0
21 -51 50 0
-21 50 51 0
-51 0
-52 0
1 -52 53 0
-1 -52 -53 0
1 -53 52 0
-1 52 53 0
5 -53 54 0
-5 -53 -54 0
5 -54 53 0
-5 53 54 0
6 -54 55 0
-6 -54 -55 0
6 -55 54 0
-6 54 55 0
10 -55 56 0
-10 -55 -56 0
10 -56 55 0
-10 55 56 0
11 -56 57 0
-11 -56 -57 0
11 -57 56 0
-11 56 57 0
12 -57 58 0
-12 -57 -58 0
12 -58 57 0
-12 57 58 0
13 -58 59 0
-13 -58 -59 0
13 -59 58 0
-13 58 59 0
14 -59 60 0
-14 -59 -60 0
14 -60 59 0
-14 59 60 0
15 -60 61 0
-15 -60 -61 0
15 -61 60 0
-15 60 61 0
19 -61 62 0
-19 -61 -62 0
19 -62 61 0
-19 61 62 0
-62 0
63 0
1 -63 64 0
-1 -63 -64 0
1 -64 63 0
-1 63 64 0
2 -64 65 0
-2 -64 -65 0
2 -65 64 0
-2 64 65 0
5 -65 66 0
-5 -65 -66 0
5 -66 65 0
-5 65 66 0
6 -66 67 0
-6 -66 -67 0
6 -67 66 0
-6 66 67 0
8 -67 68 0
-8 -67 -68 0
8 -68 67 0
-8 67 68 0
9 -68 69 0
-9 -68 -69 0
9 -69 68 0
-9 68 69 0
10 -69 70 0
-10 -69 -70 0
10 -70 69 0
-10 69 70 0
16 -70 71 0
-16 -70 -71 0
16 -71 70 0
-16 70 71 0
17 -71 72 0
-17 -71 -72 0
17 -72 71 0
-17 71 72 0
18 -72 73 0
-18 -72 -73 0
18 -73 72 0
-18 72 73 0
19 -73 74 0
-19 -73 -74 0
19 -74 73 0
-19 73 74 0
20 -74 75 0
-20 -74 -75 0
20 -75 74 0
-20 74 75 0
-75 0
76 0
3 -76 77 0
-3 -76 -77 0
3 -77 76 0
-3 76 77 0
4 -77 78 0
-4 -77 -78 0
4 -78 77 0
-4 77 78 0
5 -78 79 0
-5 -78 -79 0
5 -79 78 0
-5 78 79 0
6 -79 80 0
-6 -79 -80 0
6 -80 79 0
-6 79 80 0
7 -80 81 0
-7 -80 -81 0
7 -81 80 0
-7 80 81 0
8 -81 82 0
-8 -81 -82 0
8 -82 81 0
-8 81 82 0
13 -82 83 0
-13 -82 -83 0
13 -83 82 0
-13 82 83 0
14 -83 84 0
-14 -83 -84 0
14 -84 83 0
-14 83 84 0
17 -84 85 0
-17 -84 -85 0
17 -85 84 0
-17 84 85 0
18 -85 86 0
-18 -85 -86 0
18 -86 85 0
-18 85 86 0
20 -86 87 0
-20 -86 -87 0
20 -87 86 0
-20 86 87 0
-87 0
